(set-info :status unsat)
(declare-const symbol_0 (_ BitVec 32))
(declare-const symbol_9 (_ BitVec 32))
(declare-const symbol_16 (_ BitVec 32))
(declare-const symbol_11 (_ BitVec 32))
(declare-const symbol_3 (_ BitVec 32))
(declare-const symbol_14 (_ BitVec 32))
(declare-const symbol_1 (_ BitVec 32))
(declare-const symbol_18 (_ BitVec 32))
(declare-const symbol_21 (_ BitVec 32))
(declare-const symbol_20 (_ BitVec 32))
(declare-const symbol_7 (_ BitVec 32))
(declare-const symbol_12 (_ BitVec 32))
(declare-const symbol_5 (_ BitVec 32))
(assert (= symbol_21 (_ bv15 32)))
(assert (not (not (= symbol_21 (_ bv6 32)))))
(assert (not (not (= symbol_20 (_ bv6 32)))))
(assert (not (not (= symbol_18 (_ bv6 32)))))
(assert (not (not (= symbol_16 (_ bv6 32)))))
(assert (not (not (= symbol_14 (_ bv6 32)))))
(assert (not (not (= symbol_12 (_ bv6 32)))))
(assert (not (not (= symbol_11 (_ bv6 32)))))
(assert (not (not (= symbol_9 (_ bv6 32)))))
(assert (not (not (= symbol_7 (_ bv6 32)))))
(assert (not (not (= symbol_5 (_ bv6 32)))))
(assert (not (not (= symbol_3 (_ bv6 32)))))
(assert (not (not (= symbol_1 (_ bv6 32)))))
(assert (not (not (= symbol_0 (_ bv17 32)))))
(assert (not (= symbol_0 (_ bv6 32))))
(check-sat)